%%% static parameters %%%
timespan = 1;
Clients_N = [4000];
Demand_W = [15];
Lt0 = [4];
Lt1 = [4];
SS_ = [0.85];
DS_D = [20];
K = [200];
MA = [500];
HC = [0.05];
%%% dynamic parameters %%%
lost_ratio_sales_ret_th = 0.00036007442834293826;
lost_ratio_sales_ret_w = 34;
lost_ratio_sales_dis_th = 8.021909601791188e-05;
lost_ratio_sales_dis_w = 79;
lost_ratio_sales_fac_th = 0.0005701183672933673;
lost_ratio_sales_fac_w = 32;
stock_customer_MA_mean_relative_th = 0.9939944192498884;
stock_customer_MA_mean_relative_w = 62;
stock_distributor_MA_mean_relative_th = 0.9891585793387386;
stock_distributor_MA_mean_relative_w = 77;
stock_retailer_MA_mean_relative_th = 0.6805139908416823;
stock_retailer_MA_mean_relative_w = 91;
stock_factory_MA_mean_relative_th = 0.7460707347005993;
stock_factory_MA_mean_relative_w = 79;
